job_count = 12 ;
duration = [|15, 15, 15|16, 17, 18|6, 7, 14|2, 15, 18|15, 13, 8|27, 17, 16|2, 10, 8|8, 16, 16|16, 15, 8|26, 10, 2|22, 12, 10|27, 13, 17|] ;
machine_count = 3 ;
cost = [|28, 36, 30|10, 22, 35|28, 34, 56|18, 47, 36|47, 24, 35|46, 31, 46|33, 38, 38|33, 23, 57|29, 28, 44|15, 42, 36|40, 30, 59|29, 21, 40|] ;
deadline = [18, 21, 13, 21, 31, 20, 23, 24, 20, 13, 29, 21] ;
release = [0, 0, 0, 0, 0, 0, 0, 0, 0, 0, 0, 0] ;
resource = [|4, 4, 4|8, 8, 8|6, 6, 6|3, 3, 3|4, 4, 4|7, 7, 7|7, 7, 7|1, 1, 1|3, 3, 3|2, 2, 2|8, 8, 8|8, 8, 8|] ;
capacities = [10, 10, 10] ;
